p cnf 14 64
6 9 11 0
1 8 -13 0
5 9 12 0
7 -13 -14 0
2 9 -12 0
-5 7 -11 0
1 -8 -11 0
1 -2 -11 0
-8 11 14 0
-2 -11 13 0
-2 -6 10 0
-4 5 7 0
-6 9 -14 0
-2 -11 -12 0
2 -8 10 0
1 -2 10 0
5 -9 12 0
4 11 -13 0
-4 -8 -9 0
2 4 -9 0
-1 -9 -10 0
5 -6 -14 0
5 -9 11 0
3 -4 14 0
4 -7 9 0
-2 -4 -6 0
-8 9 10 0
-3 -6 10 0
4 13 14 0
1 6 10 0
4 -9 12 0
2 9 -14 0
10 -13 14 0
1 -10 11 0
2 -5 13 0
-2 9 -13 0
2 10 12 0
-4 -5 6 0
-1 -6 -8 0
-1 -3 13 0
6 -8 10 0
-5 -7 -14 0
2 -4 6 0
2 -5 11 0
-9 10 -13 0
-2 10 11 0
-1 6 -14 0
1 2 6 0
-2 11 -14 0
-4 -10 -14 0
-1 4 8 0
6 10 13 0
-4 8 -13 0
4 5 13 0
5 6 -12 0
-10 11 12 0
4 6 -7 0
1 4 13 0
-6 10 14 0
-7 -9 12 0
-2 -10 -12 0
2 5 10 0
1 -4 -14 0
6 -8 -13 0
